# Objective value = 3.0098710316957488e+02
x[0] 0
x[1] 1
x[2] 0
x[3] 0
x[4] 0
x[5] 0
x[6] 1
x[7] 0
x[8] 0
x[9] 1
x[10] 0
x[11] 0
x[12] 6.3984344534088337e-07
x[13] 1
x[14] 1
x[15] 0
x[16] 1
x[17] 0
x[18] 6.3990519692199992e-07
x[19] 1
x[20] 1
x[21] 0
x[22] 0
x[23] 0
x[24] 0
x[25] 0
x[26] 0
x[27] 0
x[28] 0
x[29] 0
x[30] 0
x[31] 1
x[32] 0
x[33] 0
x[34] 9.9999968333333611e-01
x[35] 0
x[36] 1
x[37] 0
x[38] 1
x[39] 1
x[40] 0
x[41] 1
x[42] 0
x[43] 0
x[44] 1
x[45] 0
x[46] 1
x[47] 0
x[48] 1
x[49] 1
x[50] 0
x[51] 1
x[52] 0
x[53] 0
x[54] 0
x[55] 0
x[56] 0
x[57] 1.0000001573876174e+00
x[58] 1
x[59] 1
x[60] 0
x[61] 1
x[62] 1
x[63] 1
x[64] 1
x[65] 0
x[66] 1
x[67] 0
x[68] 0
x[69] 1
x[70] 1
x[71] 1
x[72] 1
x[73] 0
x[74] 0
x[75] 0
x[76] 1
x[77] 3.1987829329793514e-07
x[78] 0
x[79] 1
x[80] 1.0000001571978105e+00
x[81] 1
x[82] 1
x[83] 0
x[84] 9.9999968333333344e-01
x[85] 1
x[86] 0
x[87] 0
x[88] 6.39921796067122e-07
x[89] 1
x[90] 0
x[91] 1
x[92] 1
x[93] 1
x[94] 6.3992703050551277e-07
x[95] 0
x[96] 0
x[97] 0
x[98] 0
x[99] 1
x[100] 0
x[101] 1
x[102] 1
x[103] 3.1984355970020437e-07
x[104] 0
x[105] 0
x[106] 1
x[107] 0
x[108] 0
x[109] 9.9999935999999989e-01
x[110] 1
x[111] 1
x[112] 0
x[113] 1
x[114] 0
x[115] 1
x[116] 0
x[117] 0
x[118] 0
x[119] 0
x[120] 1
x[121] 0
x[122] 1
x[123] 0
x[124] 9.9999936333333317e-01
x[125] 1
x[126] 1.0657504613492795e-07
x[127] 1
x[128] 1
x[129] 1
x[130] 1.0658583306240363e-07
x[131] 1
x[132] 1
x[133] 0
x[134] 9.9999968333333344e-01
x[135] 1
x[136] 1
x[137] 1
x[138] 1
x[139] 0
x[140] 1
x[141] 0
x[142] 0
x[143] 3.1985771770175349e-07
x[144] 1
x[145] 1
x[146] 0
x[147] 0
x[148] 0
x[149] 0
x[150] 0
x[151] 0
x[152] 1
x[153] 1
x[154] 1
x[155] 1
x[156] 1
x[157] 0
x[158] 1
x[159] 0
x[160] 0
x[161] 1
x[162] 0
x[163] 1
x[164] 1
x[165] 0
x[166] 0
x[167] 1
x[168] 0
x[169] 1
x[170] 1
x[171] 1.0000001573722492e+00
x[172] 1
x[173] 0
x[174] 1
x[175] 0
x[176] 0
x[177] 0
x[178] 1
x[179] 0
x[180] 0
x[181] 0
x[182] 0
x[183] 1
x[184] 1
x[185] 1.0553222775590990e-07
x[186] 9.9999936499999986e-01
x[187] 1
x[188] 1
x[189] 1
x[190] 1
x[191] 0
x[192] 0
x[193] 0
x[194] 1
x[195] 0
x[196] 1.0000001571378740e+00
x[197] 0
x[198] 0
x[199] 0
x[200] 1
x[201] 1
x[202] 1
x[203] 1
x[204] 0
x[205] 1
x[206] 1
x[207] 0
x[208] 1
x[209] 1
x[210] 1
x[211] 1
x[212] 1
x[213] 1
x[214] 1
x[215] 1
x[216] 0
x[217] 0
x[218] 1
x[219] 0
x[220] 1
x[221] 0
x[222] 0
x[223] 0
x[224] 0
x[225] 1
x[226] 0
x[227] 0
x[228] 0
x[229] 1
x[230] 3.1984974149752371e-07
x[231] 1.0000001572085704e+00
x[232] 0
x[233] 1
x[234] 1
x[235] 1
x[236] 0
x[237] 1
x[238] 0
x[239] 1
x[240] 1
x[241] 1
x[242] 1
x[243] 1
x[244] 1
x[245] 1
x[246] 1
x[247] 1
x[248] 1
x[249] 0
x[250] 1
x[251] 1
x[252] 1.0656113718728068e-07
x[253] 0
x[254] 1
x[255] 0
x[256] 1
x[257] 1
x[258] 1
x[259] 0
x[260] 0
x[261] 1
x[262] 0
x[263] 1
x[264] 0
x[265] 0
x[266] 0
x[267] 0
x[268] 0
x[269] 0
x[270] 0
x[271] 0
x[272] 0
x[273] 0
x[274] 0
x[275] 1
x[276] 1
x[277] 0
x[278] 0
x[279] 0
x[280] 9.9999989333333306e-01
x[281] 0
x[282] 0
x[283] 1
x[284] 1
x[285] 1
x[286] 1
x[287] 1.5971122705510920e-07
x[288] 0
x[289] 0
x[290] 1
x[291] 1
x[292] 0
x[293] 0
x[294] 0
x[295] 1
x[296] 0
x[297] 0
x[298] 1
x[299] 1
x[300] 1
x[301] 1
x[302] 1
x[303] 1
x[304] 1
x[305] 1
x[306] 1
x[307] 0
x[308] 0
x[309] 0
x[310] 0
x[311] 9.9999936333333328e-01
x[312] 0
x[313] 9.9999936333333328e-01
x[314] 0
x[315] 0
x[316] 0
x[317] 0
x[318] 1
x[319] 0
x[320] 0
x[321] 1
x[322] 0
x[323] 1
x[324] 1
x[325] 0
x[326] 0
x[327] 0
x[328] 0
x[329] 1
x[330] 0
x[331] 0
x[332] 1
x[333] 0
x[334] 0
x[335] 1
x[336] 0
x[337] 1
x[338] 1
x[339] 0
x[340] 1
x[341] 1
x[342] 1
x[343] 1
x[344] 0
x[345] 1.2857571329835668e-07
x[346] 9.9999936333333328e-01
x[347] 1
x[348] 9.9999989674750023e-01
x[349] 0
x[350] -3.5555555571058850e-07
x[351] 1
x[352] 0
x[353] 1
x[354] 1
x[355] 1
x[356] 1
x[357] 1
x[358] 1
x[359] 0
x[360] 1
x[361] 1
x[362] 1
x[363] 1
x[364] 0
x[365] 0
x[366] 0
x[367] 0
x[368] 1
x[369] 1.0000001569727326e+00
x[370] 1
x[371] 1
x[372] 0
x[373] 1
x[374] 0
x[375] 0
x[376] 0
x[377] 1
x[378] 0
x[379] 0
x[380] 1
x[381] 1.0646332695566892e-07
x[382] 0
x[383] 1
x[384] 0
x[385] 1
x[386] 1
x[387] 0
x[388] 1
x[389] 1
x[390] 0
x[391] 1
x[392] 0
x[393] 0
x[394] 0
x[395] 1
x[396] 0
x[397] -1.0353077378079077e-07
x[398] 1
x[399] 0
x[400] 0
x[401] 1
x[402] 0
x[403] 0
x[404] 0
x[405] 1
x[406] 0
x[407] 0
x[408] 1
x[409] 0
x[410] 7.4997251314789444e-07
x[411] 1
x[412] 3.1984186171250914e-07
x[413] 0
x[414] 1
x[415] 1
x[416] 1
x[417] 1
x[418] 1
x[419] 1
x[420] 1
x[421] 0
x[422] 0
x[423] 0
x[424] 1
x[425] 0
x[426] 1
x[427] 1
x[428] 0
x[429] 1
x[430] 0
x[431] 0
x[432] 1
x[433] 9.9999935999999978e-01
x[434] 0
x[435] 1
x[436] 0
x[437] 0
x[438] 0
x[439] 1
x[440] 0
x[441] 1
x[442] 0
x[443] 3.1786242873493892e-07
x[444] 1
x[445] 0
x[446] 0
x[447] 1
x[448] 1.0000002284774343e+00
x[449] 1
x[450] 1
x[451] 0
x[452] 1
x[453] 1
x[454] 1
x[455] 9.9999968000000028e-01
x[456] 0
x[457] 1
x[458] 1
x[459] 0
x[460] 0
x[461] 0
x[462] 1
x[463] 0
x[464] 1
x[465] 1
x[466] 1
x[467] 0
x[468] 0
x[469] 1
x[470] 1
x[471] 1
x[472] 1
x[473] 9.9999936342813645e-01
x[474] 0
x[475] 1
x[476] 0
x[477] 0
x[478] 1
x[479] 9.9999989333333306e-01
x[480] 1
x[481] 1.0000006398623893e+00
x[482] 1
x[483] 9.9999989333333317e-01
x[484] 1
x[485] 1
x[486] 0.99999984
x[487] 0
x[488] 1
x[489] 1
x[490] 0
x[491] 1
x[492] 0
x[493] 9.9999968333333344e-01
x[494] 0
x[495] 0
x[496] 1
x[497] 0
x[498] 0
x[499] 1
x[500] 1
x[501] 9.9999968333333344e-01
x[502] 1
x[503] 1
x[504] 0
x[505] 0
x[506] 0
x[507] 0
x[508] 0
x[509] 0
x[510] 1
x[511] 1
x[512] 1
x[513] 1
x[514] 1
x[515] 9.9999936331662465e-01
x[516] 0
x[517] 0
x[518] 1
x[519] 0
x[520] 0
x[521] 1
x[522] 0
x[523] 1
x[524] 0
x[525] 0
x[526] 1
x[527] 0
x[528] 0
x[529] 0
x[530] 0
x[531] 1
x[532] 0
x[533] 0
x[534] 0
x[535] 1
x[536] 1
x[537] 0
x[538] 0
x[539] 0
x[540] 1
x[541] 1
x[542] 1
x[543] 1
x[544] 0
x[545] 1
x[546] 0
x[547] 1
x[548] 0
x[549] 0
x[550] 0
x[551] 3.1975182738784124e-07
x[552] 0
x[553] 1
x[554] 0
x[555] 1
x[556] 1
x[557] 0
x[558] 1
x[559] 1
x[560] 1
x[561] 0
x[562] 0
x[563] 1
x[564] 1
x[565] 1
x[566] 0
x[567] 0
x[568] 0
x[569] 0
x[570] 0
x[571] 0
x[572] 1
x[573] 0
x[574] 1
x[575] 1
x[576] 0
x[577] 1
x[578] 1
x[579] 0
x[580] -1.5746031537569409e-07
x[581] -5.3333333527305626e-08
x[582] 1
x[583] 1
x[584] 0
x[585] 6.3954882659415164e-07
x[586] 1
x[587] 1
x[588] 1
x[589] 0
x[590] 1
x[591] 0
x[592] 0
x[593] 0
x[594] 1
x[595] 0
x[596] 1
x[597] 0
x[598] 1
x[599] 1
x[600] 0
x[601] 0
x[602] 0
x[603] 0
x[604] 1
x[605] 3.1992278368327247e-07
x[606] 0
x[607] 1
x[608] 1
x[609] 1
x[610] 0
x[611] 0
x[612] 0
x[613] -1.5746031534202842e-07
x[614] 0
x[615] 0
x[616] 0
x[617] 1
x[618] 0
x[619] 1
x[620] 0
x[621] 1.0623028219130093e-07
x[622] 1
x[623] 0
x[624] 1
x[625] 9.9999936333333328e-01
x[626] 1
x[627] 1
x[628] 0
x[629] 1
x[630] 0
x[631] 0
x[632] -1.5386447713224891e-07
x[633] 0
x[634] 0
x[635] 1
x[636] 1
x[637] 0
x[638] 0
x[639] 0
x[640] 1.0658550479825457e-07
x[641] 1
x[642] 3.1991291609921403e-07
x[643] 1
x[644] 0
x[645] 9.9999968333333333e-01
x[646] 0
x[647] 6.3967392456211537e-07
x[648] 0
x[649] 0
x[650] 6.3955468962406978e-07
x[651] 0
x[652] 1.0653383257552217e-07
x[653] 0
x[654] 0
x[655] 1
x[656] 0
x[657] 1
x[658] 1
x[659] 0
x[660] 0
x[661] 9.9999936341153728e-01
x[662] 1
x[663] 0
x[664] 0
x[665] 1
x[666] 0
x[667] 1
x[668] 1
x[669] 0
x[670] 0
x[671] 1
x[672] 0
x[673] 1
x[674] 0
x[675] 0
x[676] 0
x[677] 1
x[678] 1
x[679] 0
x[680] 9.9999936333333328e-01
x[681] 0
x[682] 0
x[683] 1
x[684] 1
x[685] 1
x[686] 1
x[687] 6.3983338935266618e-07
x[688] 1
x[689] 0
x[690] 1
x[691] 1
x[692] 1
x[693] 0
x[694] 1
x[695] 9.9999936348988794e-01
x[696] 1
x[697] 0
x[698] 1
x[699] 1
x[700] 1
x[701] 0
x[702] 1
x[703] 0
x[704] 1
x[705] 0
x[706] 1
x[707] 1
x[708] 0
x[709] 0
x[710] 0
x[711] 0
x[712] 1
x[713] 1
x[714] 0
x[715] 1
x[716] 1
x[717] 1
x[718] 0
x[719] 0
x[720] 1
x[721] 0
x[722] 0
x[723] 9.9999984333333336e-01
x[724] 1
x[725] 0
x[726] 0
x[727] 6.3990212337322736e-07
x[728] 1
x[729] 1
x[730] 0
x[731] 1
x[732] 1
x[733] 0
x[734] 0
x[735] 0
x[736] 0
x[737] 0
x[738] 1
x[739] 1
x[740] 0
x[741] 1
x[742] 0
x[743] 1
x[744] 0
x[745] 1
x[746] 1
x[747] 0
x[748] 1.0000000531911679e+00
x[749] 1
x[750] 0
x[751] 0
x[752] 0
x[753] 0
x[754] 0
x[755] 0
x[756] 1
x[757] 0
x[758] 0
x[759] 1
x[760] 1
x[761] -4.7460315065106136e-08
x[762] 0
x[763] -5.3333333527305626e-08
x[764] 0
x[765] 1
x[766] 1
x[767] 1
x[768] 0
x[769] 0
x[770] 1
x[771] 1
x[772] 0
x[773] 1
x[774] 1
x[775] 0
x[776] 1
x[777] 0
x[778] 0
x[779] 1
x[780] 6.3928577031382360e-07
x[781] 0
x[782] 0
x[783] 1
x[784] 1
x[785] 1
x[786] 1
x[787] 0
x[788] 9.9999936335404527e-01
x[789] 1
x[790] 1
x[791] 1
x[792] 9.9999989333333317e-01
x[793] 0
x[794] 0
x[795] 0
x[796] 6.3988106892478606e-07
x[797] 1
x[798] 1
x[799] 1.00000005324571
x[800] 1
x[801] 1.5987074337542764e-07
x[802] 0
x[803] 1
x[804] 0
x[805] 0
x[806] 1
x[807] 6.3990251650289376e-07
x[808] 0
x[809] 9.9999968333333611e-01
x[810] 0
x[811] 1
x[812] 1.5942527062438103e-07
x[813] 1
x[814] 0
x[815] 0
x[816] 0
x[817] 1
x[818] 0
x[819] 0
x[820] 0
x[821] 0
x[822] 1
x[823] 0.99999936343121
x[824] 3.1938241987319846e-07
x[825] 0
x[826] 0
x[827] 0
x[828] 0
x[829] 0
x[830] 6.3983899074116154e-07
x[831] 1
x[832] -1.5746031562421303e-07
x[833] 1
x[834] 0
x[835] 0
x[836] 1
x[837] 1
x[838] 1
x[839] 0
x[840] 1
x[841] 3.1983287665442372e-07
x[842] 1
x[843] 0
x[844] 1
x[845] 0
x[846] 0
x[847] 0
x[848] -1.5405428410841737e-07
x[849] 0
x[850] 0
x[851] 1
x[852] 1
x[853] 1
x[854] 1
x[855] 9.9999936341153728e-01
x[856] 1
x[857] 0
x[858] 1
x[859] 1
x[860] 1
x[861] 1
x[862] 3.1987184563826552e-07
x[863] 1
x[864] 1
x[865] 1
x[866] 0
x[867] 0
x[868] 1
x[869] 1
x[870] 1
x[871] 1
x[872] 0
x[873] 3.1951854633491165e-07
x[874] 9.9999968333333611e-01
x[875] 0
x[876] 1
x[877] 1
x[878] 1
x[879] 1.0000000507021913e+00
x[880] 1
x[881] 0
x[882] 1
x[883] 0
x[884] 1
x[885] 0
x[886] 3.1992702568365542e-07
x[887] 0
x[888] 1
x[889] 0
x[890] 0
x[891] 0
x[892] 1
x[893] 1
x[894] 1
x[895] 1
x[896] 1
x[897] 1
x[898] 0
x[899] 1
x[900] 0
x[901] 0
x[902] 0
x[903] 0
x[904] 1
x[905] 1
x[906] 1
x[907] 1
x[908] 1
x[909] 0
x[910] 1
x[911] 0
x[912] 0
x[913] 1
x[914] 0
x[915] 0
x[916] 1
x[917] 1
x[918] 0
x[919] 0
x[920] 0
x[921] 1
x[922] 1
x[923] 1
x[924] 9.9999968340630763e-01
x[925] 0
x[926] 0
x[927] 0
x[928] 0
x[929] 1
x[930] 0
x[931] 6.3901571965235809e-07
x[932] 0
x[933] 0
x[934] 1
x[935] 1
x[936] 1
x[937] 0
x[938] 0
x[939] 1
x[940] -1.5746031567509533e-07
x[941] 0
x[942] 0
x[943] 0
x[944] 0
x[945] 1
x[946] 1
x[947] 0
x[948] 1
x[949] 0
x[950] 1
x[951] 1
x[952] 0
x[953] 0
x[954] 0
x[955] 0
x[956] 1
x[957] 1
x[958] 6.3869728711222776e-07
x[959] 0
x[960] 1
x[961] 1.0000001573746007e+00
x[962] 1.5696272400799780e-07
x[963] 0
x[964] 1
x[965] 0
x[966] 0
x[967] 0
x[968] 9.9999968340630763e-01
x[969] 0
x[970] 0
x[971] 1
x[972] 0
x[973] 0
x[974] 0
x[975] 1
x[976] 1
x[977] 0
x[978] 0
x[979] 1
x[980] 0
x[981] 0
x[982] 0
x[983] 0
x[984] 1
x[985] 1
x[986] 0
x[987] 1
x[988] 1
x[989] 1
x[990] 0
x[991] 0
x[992] 0
x[993] 9.9999989687000645e-01
x[994] 0
x[995] 1
x[996] 0
x[997] 0
x[998] 0
x[999] 0
